NAME: random problem
TYPE: MTSP
COMMENT: MTSP problem for MRS UAV summer school
DIMENSION: 20
NUMBER_OF_ROBOTS: 2
START_TARGET_INDEXES: 1, 2
NEIGHBORHOOD_RADIUS: 2
EDGE_WEIGHT_TYPE: EUC_2D
NODE_COORD_SECTION
1 15.0 -21.0
2 -5.0 -25.0
3 -1.7 9.4
4 17.7 11.2
5 -6.6 6.0
6 14.6 18.8
7 -0.7 1.8
8 27.1 -11.2
9 -30.1 -15.3
10 -19.6 -1.1
11 -25.7 -20.9
12 -9.9 12.0
13 2.4 -26.1
14 -32.1 3.8
15 11.8 -23.0
16 2.1 -7.9
17 9.1 -14.6
18 3.8 -0.9
19 12.6 1.1
20 -14.9 1.6
EOF
